(set-info :smt-lib-version 2.6)
(set-logic QF_S)
(set-info :source |
Generated by: Murphy Berzish, Mitja Kulczynski, Federico Mora, Florin Manea, Joel Day, Dirk Nowotka, Vijay Ganesh, Zhengyang Lu
Generated on: 2020-10-01
Description: Translated from a collection of real-world regex queries, AutomataArk, collected by Loris D’Antoni and Fang Wang: https://github.com/lorisdanto/automatark
Application: Evaluate solvers on real-world regex queries
Target solver: Z3str3RE, CVC4, OSTRICH, Z3seq, Z3str3, Z3-Trau
Publications: Berzish, M., Kulczynski, M., Mora, F., Manea, F., Day, J. D., Nowotka, D., & Ganesh, V. (2021, July). An SMT solver for regular expressions and linear arithmetic over string length. In CAV 2021.
|)
(set-info :license "https://creativecommons.org/licenses/by/4.0/")
(set-info :category "industrial")
(set-info :status unsat)

(declare-const X String)
(assert (not (str.in_re X (re.union (re.++ (re.union (str.to_re "Jan") (str.to_re "Feb") (str.to_re "Mar") (str.to_re "Apr") (str.to_re "May") (str.to_re "Jun") (str.to_re "Jul") (str.to_re "Aug") (str.to_re "Sep") (str.to_re "Oct") (str.to_re "Nov") (str.to_re "Dec")) (re.* (str.to_re ",")) (re.union (str.to_re " ") (str.to_re "\u{9}") (str.to_re "\u{a}") (str.to_re "\u{c}") (str.to_re "\u{d}")) (re.* (re.union (str.to_re " ") (str.to_re "\u{9}") (str.to_re "\u{a}") (str.to_re "\u{c}") (str.to_re "\u{d}"))) ((_ re.loop 4 4) (re.range "0" "9"))) (re.++ (re.union (str.to_re "jan") (str.to_re "feb") (str.to_re "mar") (str.to_re "apr") (str.to_re "may") (str.to_re "jun") (str.to_re "jul") (str.to_re "aug") (str.to_re "sep") (str.to_re "oct") (str.to_re "nov") (str.to_re "dec")) (re.* (str.to_re ",")) (re.union (str.to_re " ") (str.to_re "\u{9}") (str.to_re "\u{a}") (str.to_re "\u{c}") (str.to_re "\u{d}")) ((_ re.loop 4 4) (re.range "0" "9"))) (re.++ (re.union (str.to_re "January") (str.to_re "February") (str.to_re "March") (str.to_re "April") (str.to_re "May") (str.to_re "June") (str.to_re "July") (str.to_re "August") (str.to_re "September") (str.to_re "October") (str.to_re "November") (str.to_re "December")) (re.* (str.to_re ",")) (re.union (str.to_re " ") (str.to_re "\u{9}") (str.to_re "\u{a}") (str.to_re "\u{c}") (str.to_re "\u{d}")) ((_ re.loop 4 4) (re.range "0" "9"))) (re.++ (re.union (str.to_re "january") (str.to_re "february") (str.to_re "march") (str.to_re "april") (str.to_re "may") (str.to_re "june") (str.to_re "july") (str.to_re "august") (str.to_re "september") (str.to_re "october") (str.to_re "november") (str.to_re "december")) (re.* (str.to_re ",")) (re.union (str.to_re " ") (str.to_re "\u{9}") (str.to_re "\u{a}") (str.to_re "\u{c}") (str.to_re "\u{d}")) ((_ re.loop 4 4) (re.range "0" "9")) (str.to_re "\u{a}"))))))
(assert (str.in_re X (re.++ (str.to_re "/*") (re.+ re.allchar) (str.to_re "*/\u{a}"))))
(assert (str.in_re X (re.++ (str.to_re "/filename") (re.* (re.union (str.to_re " ") (str.to_re "\u{9}") (str.to_re "\u{a}") (str.to_re "\u{c}") (str.to_re "\u{d}"))) (str.to_re "=") (re.* (re.union (str.to_re " ") (str.to_re "\u{9}") (str.to_re "\u{a}") (str.to_re "\u{c}") (str.to_re "\u{d}"))) (re.* (re.union (str.to_re "\u{d}") (str.to_re "\u{a}"))) (str.to_re ".mcl") (re.union (str.to_re "\u{22}") (str.to_re "'") (str.to_re ";") (str.to_re "\u{d}") (str.to_re "\u{a}") (str.to_re " ") (str.to_re "\u{9}") (str.to_re "\u{a}") (str.to_re "\u{c}") (str.to_re "\u{d}")) (str.to_re "/i\u{a}"))))
(assert (str.in_re X (re.union (str.to_re "script") (str.to_re "<") (str.to_re ">") (str.to_re "%3c") (str.to_re "%3e") (str.to_re "SELECT ") (str.to_re "UPDATE ") (str.to_re "INSERT ") (str.to_re "DELETE") (str.to_re "GRANT ") (str.to_re "REVOKE") (str.to_re "UNION") (str.to_re "&lt;") (str.to_re "&gt;\u{a}"))))
(assert (str.in_re X (re.++ (str.to_re "/udp|") (re.+ (re.range "0" "9")) (str.to_re "|") (re.+ (re.range "0" "9")) (str.to_re "|") (re.+ (re.union (re.range "a" "z") (re.range "0" "9"))) (str.to_re ".") ((_ re.loop 2 3) (re.range "a" "z")) (str.to_re "|") (re.+ (re.union (re.range "a" "z") (re.range "0" "9"))) (str.to_re "|/\u{a}"))))
(check-sat)

(exit)
